
  22   10
  10   10   10   10   10   10   10   10   10   10

   0   0   0   0   0   0   0   0   0   0   0   2 2 4 
   5  10   0   0   0   0   0   0   0   0   0   2 7 3 
   7   0   0   0   0   0   0   0   0  10   0   1 5 
   5   0   0   0   0   0   0  10   0   0   0   1 5 
   2   0   0   0   0   0  10   0   0   0   0   3 11 10 6 
   8   0   0   0   0   0  10   0   0   0   0   3 17 12 8 
   6   0  10   0   0   0   0   0   0   0   0   3 13 11 9 
   9   0   0  10   0   0   0   0   0   0   0   2 20 9 
   5   0   0   0   0  10   0   0   0   0   0   2 19 14 
   5   0   0  10   0   0   0   0   0   0   0   2 20 13 
   7   0   0   0   0  10   0   0   0   0   0   2 20 15 
   7   0   0   0   0   0   0  10   0   0   0   2 19 15 
   3   0   0   0  10   0   0   0   0   0   0   3 21 19 18 
   7   0   0   0   0   0   0   0   0   0  10   1 15 
  10   0   0   0   0   0   0   0   0  10   0   1 16 
   1   0   0   0   0  10   0   0   0   0   0   1 18 
   6   0   0   0   0  10   0   0   0   0   0   1 20 
   6   0   0   0   0   0   0   0   0  10   0   1 22
   2   0   0   0  10   0   0   0   0   0   0   1 22
   9   0   0   0   0   0  10   0   0   0   0   1 22
   1   0   0   0   0   0   0   0   0   0  10   1 22
   0   0   0   0   0   0   0   0   0   0   0   0 
